
Gurobi 11.0.3 (linux64) logging started Mon 18 Nov 2024 07:54:05 PM CST

Set parameter LogFile to value "/home/dlcole3/graph_abstraction/hierarchical_graphs/git_storage/CS1/HP_low_reserves/gurobi_logs/serial/logfile_ST6_7.log"

Gurobi 11.0.3 (linux64) logging started Mon 18 Nov 2024 08:11:34 PM CST

Set parameter LogFile to value "/home/dlcole3/graph_abstraction/hierarchical_graphs/git_storage/CS1/HP_low_reserves/gurobi_logs/serial/logfile_ST6_7.log"
Gurobi Optimizer version 11.0.3 build v11.0.3rc0 (linux64 - "Ubuntu 18.04.3 LTS")

CPU model: Intel(R) Xeon(R) CPU E5-2698 v4 @ 2.20GHz, instruction set [SSE2|AVX|AVX2]
Thread count: 40 physical cores, 80 logical processors, using up to 20 threads

Optimize a model with 29168 rows, 50688 columns and 136175 nonzeros
Model fingerprint: 0xbd9ef602
Variable types: 46944 continuous, 3744 integer (3744 binary)
Coefficient statistics:
  Matrix range     [6e-01, 2e+04]
  Objective range  [2e+00, 2e+04]
  Bounds range     [5e-02, 2e+05]
  RHS range        [5e-02, 7e+03]
Presolve removed 14598 rows and 38782 columns
Presolve time: 0.33s
Presolved: 14570 rows, 11906 columns, 61980 nonzeros
Variable types: 8989 continuous, 2917 integer (2917 binary)
Found heuristic solution: objective 182019.49262
Found heuristic solution: objective 171531.10938
Found heuristic solution: objective 153727.64378

Root relaxation: objective 4.369856e+04, 7745 iterations, 0.32 seconds (0.23 work units)

    Nodes    |    Current Node    |     Objective Bounds      |     Work
 Expl Unexpl |  Obj  Depth IntInf | Incumbent    BestBd   Gap | It/Node Time

     0     0 43698.5600    0    8 153727.644 43698.5600  71.6%     -    1s
H    0     0                    69520.657811 43698.5600  37.1%     -    1s
     0     0 43698.5600    0    8 69520.6578 43698.5600  37.1%     -    1s
     0     2 43698.5600    0    8 69520.6578 43698.5600  37.1%     -    1s
H   33    52                    44729.521469 43698.6228  2.30%  46.9    2s
H   48    52                    44616.791742 43698.6228  2.06%  36.1    2s
H  208    55                    44538.147472 43706.7937  1.87%  19.0    2s
H  214    55                    44226.158504 43706.7937  1.17%  19.2    2s
H  321    96                    44074.149156 43706.7937  0.83%  15.8    2s
H  329    96                    44070.935088 43706.7937  0.83%  15.7    2s
H  331    96                    44070.370194 43706.7937  0.82%  15.6    2s
*  417    47              21    44069.962111 44037.8814  0.07%  13.3    2s

Explored 434 nodes (13361 simplex iterations) in 2.68 seconds (1.88 work units)
Thread count was 20 (of 80 available processors)

Solution count 10: 44070 44070 44074.1 ... 171531

Optimal solution found (tolerance 3.00e-03)
Best objective 4.406996211241e+04, best bound 4.403788143695e+04, gap 0.0728%

User-callback calls 2236, time in user-callback 0.00 sec
